nN = 10;
nR = 30;
nH = 2;

a = [[23, 21, 24, 16, 25, 16, 17, 25, 18, 17, 19, 19, 25, 15, 23, 21, 15, 21, 25, 22, 22, 24, 24, 23, 25, 17, 25, 24, 15, 18], [24, 25, 18, 25, 22, 18, 17, 23, 22, 19, 20, 17, 22, 19, 23, 25, 20, 21, 25, 22, 23, 15, 16, 15, 16, 24, 17, 24, 17, 17], [24, 18, 16, 19, 18, 20, 20, 22, 19, 21, 17, 23, 21, 15, 15, 25, 18, 20, 20, 16, 23, 16, 25, 18, 23, 21, 25, 19, 22, 25], [20, 23, 25, 24, 22, 25, 22, 16, 25, 23, 23, 22, 21, 23, 22, 19, 18, 17, 24, 24, 23, 15, 16, 23, 19, 22, 20, 21, 16, 19], [16, 17, 16, 24, 25, 19, 24, 20, 15, 23, 21, 16, 16, 20, 25, 18, 16, 20, 20, 19, 15, 20, 21, 18, 23, 21, 18, 25, 24, 17], [17, 21, 19, 21, 15, 20, 25, 16, 20, 16, 23, 19, 20, 18, 19, 16, 15, 19, 15, 19, 17, 21, 17, 19, 18, 19, 20, 22, 20, 24], [21, 19, 20, 23, 24, 22, 15, 15, 17, 22, 16, 21, 25, 22, 15, 22, 18, 17, 22, 25, 20, 21, 21, 24, 22, 22, 18, 16, 17, 25], [23, 20, 19, 23, 16, 19, 24, 25, 15, 23, 21, 15, 21, 19, 23, 19, 25, 24, 18, 24, 17, 22, 22, 19, 25, 17, 25, 23, 15, 17], [19, 25, 23, 18, 15, 20, 16, 16, 19, 24, 24, 24, 18, 21, 18, 18, 15, 18, 17, 23, 15, 15, 15, 16, 23, 15, 20, 16, 16, 17], [20, 17, 23, 17, 19, 18, 21, 24, 19, 20, 16, 21, 15, 25, 24, 16, 20, 18, 23, 15, 24, 18, 18, 17, 21, 23, 16, 22, 20, 25]];
c = [[[0, 0, 0, 0, 0, 0, 0, 0, 0, 0, 0, 0, 0, 0, 0, 0, 0, 0, 0, 0, 0, 0, 0, 0, 0, 0, 0, 0, 0, 0], [41, 44, 35, 47, 39, 37, 33, 32, 31, 41, 46, 39, 47, 45, 34, 30, 40, 47, 44, 34, 37, 43, 31, 39, 33, 35, 44, 50, 47, 44], [43, 32, 36, 41, 31, 45, 45, 38, 35, 48, 49, 41, 37, 49, 34, 38, 34, 30, 44, 44, 31, 40, 36, 30, 42, 32, 33, 50, 39, 33], [41, 43, 30, 43, 46, 30, 46, 41, 50, 45, 43, 33, 42, 47, 41, 36, 46, 40, 49, 30, 46, 47, 37, 40, 33, 43, 45, 35, 40, 33], [39, 45, 50, 48, 30, 38, 42, 31, 41, 37, 36, 45, 36, 35, 46, 40, 32, 44, 33, 37, 45, 33, 49, 46, 31, 49, 42, 41, 45, 37], [36, 40, 45, 33, 41, 31, 44, 45, 33, 48, 49, 31, 43, 48, 49, 34, 49, 48, 47, 37, 33, 43, 32, 45, 47, 45, 48, 35, 30, 39], [33, 36, 37, 41, 30, 42, 48, 45, 43, 45, 48, 36, 46, 41, 36, 40, 32, 37, 33, 46, 34, 47, 34, 40, 39, 49, 33, 31, 45, 34], [45, 42, 35, 38, 47, 49, 47, 39, 35, 40, 35, 40, 31, 42, 42, 45, 44, 30, 30, 37, 38, 34, 41, 47, 41, 45, 47, 48, 33, 45], [44, 44, 45, 49, 37, 44, 30, 38, 42, 47, 49, 38, 30, 44, 40, 35, 36, 30, 32, 41, 42, 30, 31, 30, 49, 30, 31, 42, 49, 32], [38, 30, 46, 36, 48, 39, 43, 35, 44, 32, 41, 36, 35, 50, 30, 33, 42, 43, 42, 47, 31, 46, 49, 48, 47, 37, 47, 33, 42, 41]], [[0, 0, 0, 0, 0, 0, 0, 0, 0, 0, 0, 0, 0, 0, 0, 0, 0, 0, 0, 0, 0, 0, 0, 0, 0, 0, 0, 0, 0, 0], [0, 0, 0, 0, 0, 0, 0, 0, 0, 0, 0, 0, 0, 0, 0, 0, 0, 0, 0, 0, 0, 0, 0, 0, 0, 0, 0, 0, 0, 0], [49, 32, 34, 43, 46, 49, 32, 34, 37, 36, 49, 39, 42, 34, 47, 30, 46, 45, 37, 48, 40, 31, 45, 45, 31, 42, 40, 30, 33, 42], [32, 30, 50, 49, 30, 50, 45, 46, 43, 48, 30, 42, 38, 50, 32, 49, 42, 42, 43, 47, 31, 30, 40, 33, 42, 41, 47, 33, 45, 47], [35, 43, 40, 30, 32, 45, 46, 49, 50, 36, 30, 41, 49, 43, 36, 35, 36, 48, 38, 34, 30, 45, 32, 47, 34, 35, 43, 44, 40, 45], [39, 34, 40, 46, 35, 38, 46, 39, 37, 40, 48, 40, 35, 32, 36, 42, 38, 48, 46, 44, 32, 36, 30, 39, 38, 43, 40, 33, 44, 44], [35, 32, 48, 43, 49, 40, 40, 40, 44, 39, 50, 38, 43, 30, 47, 44, 34, 43, 46, 50, 44, 48, 36, 35, 37, 44, 35, 33, 39, 32], [46, 50, 38, 50, 33, 34, 48, 46, 32, 49, 47, 39, 49, 45, 48, 46, 31, 32, 43, 31, 42, 43, 49, 34, 39, 49, 31, 30, 35, 38], [32, 47, 36, 40, 30, 30, 46, 47, 38, 34, 39, 39, 49, 30, 36, 31, 34, 34, 36, 50, 39, 46, 38, 47, 30, 41, 47, 49, 34, 47], [50, 36, 42, 44, 42, 46, 40, 34, 38, 33, 33, 39, 36, 39, 31, 45, 50, 37, 49, 46, 43, 45, 49, 39, 40, 48, 50, 49, 32, 47]], [[0, 0, 0, 0, 0, 0, 0, 0, 0, 0, 0, 0, 0, 0, 0, 0, 0, 0, 0, 0, 0, 0, 0, 0, 0, 0, 0, 0, 0, 0], [0, 0, 0, 0, 0, 0, 0, 0, 0, 0, 0, 0, 0, 0, 0, 0, 0, 0, 0, 0, 0, 0, 0, 0, 0, 0, 0, 0, 0, 0], [0, 0, 0, 0, 0, 0, 0, 0, 0, 0, 0, 0, 0, 0, 0, 0, 0, 0, 0, 0, 0, 0, 0, 0, 0, 0, 0, 0, 0, 0], [32, 43, 47, 36, 30, 34, 44, 32, 47, 37, 32, 43, 42, 45, 45, 47, 50, 36, 39, 31, 35, 43, 36, 41, 50, 47, 44, 43, 46, 30], [38, 46, 31, 46, 45, 30, 33, 38, 35, 49, 31, 33, 36, 49, 41, 34, 49, 45, 30, 35, 37, 50, 45, 34, 47, 45, 49, 33, 37, 36], [33, 32, 32, 45, 46, 32, 42, 42, 30, 42, 45, 47, 49, 34, 49, 33, 48, 32, 42, 47, 50, 49, 50, 37, 34, 35, 48, 43, 30, 31], [34, 40, 34, 42, 48, 45, 37, 45, 35, 40, 50, 39, 37, 37, 49, 38, 35, 33, 50, 37, 35, 42, 31, 33, 37, 34, 43, 49, 36, 49], [50, 46, 50, 33, 31, 49, 36, 45, 32, 35, 31, 50, 45, 36, 44, 42, 50, 30, 48, 45, 40, 33, 44, 33, 47, 42, 30, 49, 33, 34], [50, 40, 40, 30, 40, 31, 43, 31, 38, 33, 41, 41, 48, 50, 37, 42, 31, 33, 35, 50, 34, 42, 46, 47, 41, 32, 32, 48, 32, 37], [44, 48, 41, 46, 35, 49, 48, 32, 38, 36, 35, 43, 31, 50, 34, 49, 47, 46, 41, 44, 40, 39, 31, 48, 36, 48, 39, 32, 31, 47]], [[0, 0, 0, 0, 0, 0, 0, 0, 0, 0, 0, 0, 0, 0, 0, 0, 0, 0, 0, 0, 0, 0, 0, 0, 0, 0, 0, 0, 0, 0], [0, 0, 0, 0, 0, 0, 0, 0, 0, 0, 0, 0, 0, 0, 0, 0, 0, 0, 0, 0, 0, 0, 0, 0, 0, 0, 0, 0, 0, 0], [0, 0, 0, 0, 0, 0, 0, 0, 0, 0, 0, 0, 0, 0, 0, 0, 0, 0, 0, 0, 0, 0, 0, 0, 0, 0, 0, 0, 0, 0], [0, 0, 0, 0, 0, 0, 0, 0, 0, 0, 0, 0, 0, 0, 0, 0, 0, 0, 0, 0, 0, 0, 0, 0, 0, 0, 0, 0, 0, 0], [47, 35, 31, 50, 41, 46, 43, 31, 32, 40, 45, 39, 41, 47, 34, 49, 32, 31, 37, 36, 45, 32, 38, 33, 31, 43, 34, 49, 31, 49], [35, 35, 40, 47, 36, 44, 36, 50, 39, 30, 34, 36, 31, 34, 43, 32, 45, 33, 45, 37, 37, 46, 48, 48, 33, 47, 43, 41, 48, 32], [32, 38, 35, 35, 33, 34, 36, 47, 49, 43, 31, 43, 43, 44, 47, 30, 44, 48, 38, 33, 36, 38, 32, 48, 47, 31, 38, 39, 49, 41], [30, 50, 45, 37, 32, 40, 41, 44, 47, 35, 30, 45, 35, 39, 32, 48, 44, 38, 39, 50, 46, 36, 47, 40, 39, 30, 40, 49, 41, 38], [32, 50, 46, 49, 48, 33, 46, 45, 50, 35, 42, 48, 49, 37, 30, 45, 36, 45, 34, 37, 44, 45, 33, 36, 31, 30, 50, 31, 39, 49], [46, 46, 30, 34, 33, 45, 40, 39, 46, 47, 42, 39, 42, 30, 30, 45, 44, 44, 47, 37, 35, 43, 42, 50, 41, 45, 46, 31, 31, 33]], [[0, 0, 0, 0, 0, 0, 0, 0, 0, 0, 0, 0, 0, 0, 0, 0, 0, 0, 0, 0, 0, 0, 0, 0, 0, 0, 0, 0, 0, 0], [0, 0, 0, 0, 0, 0, 0, 0, 0, 0, 0, 0, 0, 0, 0, 0, 0, 0, 0, 0, 0, 0, 0, 0, 0, 0, 0, 0, 0, 0], [0, 0, 0, 0, 0, 0, 0, 0, 0, 0, 0, 0, 0, 0, 0, 0, 0, 0, 0, 0, 0, 0, 0, 0, 0, 0, 0, 0, 0, 0], [0, 0, 0, 0, 0, 0, 0, 0, 0, 0, 0, 0, 0, 0, 0, 0, 0, 0, 0, 0, 0, 0, 0, 0, 0, 0, 0, 0, 0, 0], [0, 0, 0, 0, 0, 0, 0, 0, 0, 0, 0, 0, 0, 0, 0, 0, 0, 0, 0, 0, 0, 0, 0, 0, 0, 0, 0, 0, 0, 0], [41, 50, 41, 38, 42, 39, 34, 43, 35, 30, 32, 30, 48, 40, 40, 42, 43, 32, 30, 35, 44, 50, 42, 34, 32, 38, 30, 45, 37, 37], [39, 45, 31, 33, 38, 45, 32, 40, 49, 50, 44, 50, 47, 41, 42, 47, 33, 30, 45, 31, 49, 45, 30, 49, 33, 45, 41, 32, 42, 45], [45, 33, 49, 35, 39, 39, 48, 34, 45, 36, 50, 44, 40, 43, 30, 49, 35, 35, 31, 33, 38, 49, 33, 36, 50, 50, 47, 50, 42, 31], [48, 43, 42, 41, 35, 40, 37, 46, 40, 37, 34, 37, 36, 31, 37, 38, 31, 34, 42, 38, 33, 37, 34, 30, 43, 31, 39, 34, 32, 45], [38, 31, 43, 43, 35, 48, 32, 41, 47, 48, 44, 38, 35, 42, 42, 47, 33, 39, 30, 37, 48, 42, 48, 36, 33, 45, 44, 50, 30, 44]], [[0, 0, 0, 0, 0, 0, 0, 0, 0, 0, 0, 0, 0, 0, 0, 0, 0, 0, 0, 0, 0, 0, 0, 0, 0, 0, 0, 0, 0, 0], [0, 0, 0, 0, 0, 0, 0, 0, 0, 0, 0, 0, 0, 0, 0, 0, 0, 0, 0, 0, 0, 0, 0, 0, 0, 0, 0, 0, 0, 0], [0, 0, 0, 0, 0, 0, 0, 0, 0, 0, 0, 0, 0, 0, 0, 0, 0, 0, 0, 0, 0, 0, 0, 0, 0, 0, 0, 0, 0, 0], [0, 0, 0, 0, 0, 0, 0, 0, 0, 0, 0, 0, 0, 0, 0, 0, 0, 0, 0, 0, 0, 0, 0, 0, 0, 0, 0, 0, 0, 0], [0, 0, 0, 0, 0, 0, 0, 0, 0, 0, 0, 0, 0, 0, 0, 0, 0, 0, 0, 0, 0, 0, 0, 0, 0, 0, 0, 0, 0, 0], [0, 0, 0, 0, 0, 0, 0, 0, 0, 0, 0, 0, 0, 0, 0, 0, 0, 0, 0, 0, 0, 0, 0, 0, 0, 0, 0, 0, 0, 0], [30, 36, 30, 39, 50, 49, 39, 31, 47, 37, 48, 40, 47, 35, 38, 47, 38, 31, 49, 47, 30, 49, 38, 45, 44, 41, 40, 50, 38, 48], [38, 36, 30, 31, 31, 33, 46, 49, 45, 49, 32, 44, 33, 35, 43, 35, 31, 47, 35, 49, 43, 37, 31, 35, 35, 44, 44, 32, 36, 42], [36, 44, 39, 34, 32, 36, 48, 41, 37, 41, 33, 31, 48, 46, 31, 37, 36, 44, 36, 30, 35, 35, 35, 33, 42, 34, 43, 36, 41, 35], [33, 36, 48, 41, 34, 30, 39, 37, 30, 31, 44, 33, 43, 43, 50, 38, 41, 43, 37, 41, 43, 45, 46, 33, 41, 50, 36, 41, 43, 48]], [[0, 0, 0, 0, 0, 0, 0, 0, 0, 0, 0, 0, 0, 0, 0, 0, 0, 0, 0, 0, 0, 0, 0, 0, 0, 0, 0, 0, 0, 0], [0, 0, 0, 0, 0, 0, 0, 0, 0, 0, 0, 0, 0, 0, 0, 0, 0, 0, 0, 0, 0, 0, 0, 0, 0, 0, 0, 0, 0, 0], [0, 0, 0, 0, 0, 0, 0, 0, 0, 0, 0, 0, 0, 0, 0, 0, 0, 0, 0, 0, 0, 0, 0, 0, 0, 0, 0, 0, 0, 0], [0, 0, 0, 0, 0, 0, 0, 0, 0, 0, 0, 0, 0, 0, 0, 0, 0, 0, 0, 0, 0, 0, 0, 0, 0, 0, 0, 0, 0, 0], [0, 0, 0, 0, 0, 0, 0, 0, 0, 0, 0, 0, 0, 0, 0, 0, 0, 0, 0, 0, 0, 0, 0, 0, 0, 0, 0, 0, 0, 0], [0, 0, 0, 0, 0, 0, 0, 0, 0, 0, 0, 0, 0, 0, 0, 0, 0, 0, 0, 0, 0, 0, 0, 0, 0, 0, 0, 0, 0, 0], [0, 0, 0, 0, 0, 0, 0, 0, 0, 0, 0, 0, 0, 0, 0, 0, 0, 0, 0, 0, 0, 0, 0, 0, 0, 0, 0, 0, 0, 0], [43, 48, 48, 45, 50, 39, 41, 31, 38, 34, 39, 31, 41, 30, 35, 32, 35, 34, 43, 43, 39, 44, 37, 34, 41, 47, 43, 38, 31, 46], [40, 44, 40, 44, 49, 50, 47, 33, 44, 32, 44, 34, 34, 30, 45, 41, 45, 41, 32, 31, 41, 30, 30, 47, 32, 38, 37, 35, 42, 49], [32, 34, 47, 33, 44, 47, 33, 30, 38, 49, 40, 40, 39, 36, 39, 30, 41, 40, 39, 48, 48, 50, 47, 38, 46, 34, 32, 45, 35, 30]], [[0, 0, 0, 0, 0, 0, 0, 0, 0, 0, 0, 0, 0, 0, 0, 0, 0, 0, 0, 0, 0, 0, 0, 0, 0, 0, 0, 0, 0, 0], [0, 0, 0, 0, 0, 0, 0, 0, 0, 0, 0, 0, 0, 0, 0, 0, 0, 0, 0, 0, 0, 0, 0, 0, 0, 0, 0, 0, 0, 0], [0, 0, 0, 0, 0, 0, 0, 0, 0, 0, 0, 0, 0, 0, 0, 0, 0, 0, 0, 0, 0, 0, 0, 0, 0, 0, 0, 0, 0, 0], [0, 0, 0, 0, 0, 0, 0, 0, 0, 0, 0, 0, 0, 0, 0, 0, 0, 0, 0, 0, 0, 0, 0, 0, 0, 0, 0, 0, 0, 0], [0, 0, 0, 0, 0, 0, 0, 0, 0, 0, 0, 0, 0, 0, 0, 0, 0, 0, 0, 0, 0, 0, 0, 0, 0, 0, 0, 0, 0, 0], [0, 0, 0, 0, 0, 0, 0, 0, 0, 0, 0, 0, 0, 0, 0, 0, 0, 0, 0, 0, 0, 0, 0, 0, 0, 0, 0, 0, 0, 0], [0, 0, 0, 0, 0, 0, 0, 0, 0, 0, 0, 0, 0, 0, 0, 0, 0, 0, 0, 0, 0, 0, 0, 0, 0, 0, 0, 0, 0, 0], [0, 0, 0, 0, 0, 0, 0, 0, 0, 0, 0, 0, 0, 0, 0, 0, 0, 0, 0, 0, 0, 0, 0, 0, 0, 0, 0, 0, 0, 0], [45, 37, 31, 37, 43, 45, 44, 41, 50, 31, 39, 44, 44, 40, 44, 50, 40, 31, 47, 50, 46, 50, 36, 31, 46, 48, 37, 37, 35, 45], [43, 49, 38, 48, 50, 43, 32, 36, 33, 45, 48, 38, 36, 41, 30, 48, 31, 47, 43, 39, 37, 36, 48, 41, 38, 43, 38, 45, 33, 41]], [[0, 0, 0, 0, 0, 0, 0, 0, 0, 0, 0, 0, 0, 0, 0, 0, 0, 0, 0, 0, 0, 0, 0, 0, 0, 0, 0, 0, 0, 0], [0, 0, 0, 0, 0, 0, 0, 0, 0, 0, 0, 0, 0, 0, 0, 0, 0, 0, 0, 0, 0, 0, 0, 0, 0, 0, 0, 0, 0, 0], [0, 0, 0, 0, 0, 0, 0, 0, 0, 0, 0, 0, 0, 0, 0, 0, 0, 0, 0, 0, 0, 0, 0, 0, 0, 0, 0, 0, 0, 0], [0, 0, 0, 0, 0, 0, 0, 0, 0, 0, 0, 0, 0, 0, 0, 0, 0, 0, 0, 0, 0, 0, 0, 0, 0, 0, 0, 0, 0, 0], [0, 0, 0, 0, 0, 0, 0, 0, 0, 0, 0, 0, 0, 0, 0, 0, 0, 0, 0, 0, 0, 0, 0, 0, 0, 0, 0, 0, 0, 0], [0, 0, 0, 0, 0, 0, 0, 0, 0, 0, 0, 0, 0, 0, 0, 0, 0, 0, 0, 0, 0, 0, 0, 0, 0, 0, 0, 0, 0, 0], [0, 0, 0, 0, 0, 0, 0, 0, 0, 0, 0, 0, 0, 0, 0, 0, 0, 0, 0, 0, 0, 0, 0, 0, 0, 0, 0, 0, 0, 0], [0, 0, 0, 0, 0, 0, 0, 0, 0, 0, 0, 0, 0, 0, 0, 0, 0, 0, 0, 0, 0, 0, 0, 0, 0, 0, 0, 0, 0, 0], [0, 0, 0, 0, 0, 0, 0, 0, 0, 0, 0, 0, 0, 0, 0, 0, 0, 0, 0, 0, 0, 0, 0, 0, 0, 0, 0, 0, 0, 0], [36, 42, 31, 30, 47, 45, 48, 48, 40, 37, 42, 35, 35, 33, 41, 41, 50, 36, 43, 32, 34, 34, 42, 31, 38, 43, 31, 32, 49, 45]], [[0, 0, 0, 0, 0, 0, 0, 0, 0, 0, 0, 0, 0, 0, 0, 0, 0, 0, 0, 0, 0, 0, 0, 0, 0, 0, 0, 0, 0, 0], [0, 0, 0, 0, 0, 0, 0, 0, 0, 0, 0, 0, 0, 0, 0, 0, 0, 0, 0, 0, 0, 0, 0, 0, 0, 0, 0, 0, 0, 0], [0, 0, 0, 0, 0, 0, 0, 0, 0, 0, 0, 0, 0, 0, 0, 0, 0, 0, 0, 0, 0, 0, 0, 0, 0, 0, 0, 0, 0, 0], [0, 0, 0, 0, 0, 0, 0, 0, 0, 0, 0, 0, 0, 0, 0, 0, 0, 0, 0, 0, 0, 0, 0, 0, 0, 0, 0, 0, 0, 0], [0, 0, 0, 0, 0, 0, 0, 0, 0, 0, 0, 0, 0, 0, 0, 0, 0, 0, 0, 0, 0, 0, 0, 0, 0, 0, 0, 0, 0, 0], [0, 0, 0, 0, 0, 0, 0, 0, 0, 0, 0, 0, 0, 0, 0, 0, 0, 0, 0, 0, 0, 0, 0, 0, 0, 0, 0, 0, 0, 0], [0, 0, 0, 0, 0, 0, 0, 0, 0, 0, 0, 0, 0, 0, 0, 0, 0, 0, 0, 0, 0, 0, 0, 0, 0, 0, 0, 0, 0, 0], [0, 0, 0, 0, 0, 0, 0, 0, 0, 0, 0, 0, 0, 0, 0, 0, 0, 0, 0, 0, 0, 0, 0, 0, 0, 0, 0, 0, 0, 0], [0, 0, 0, 0, 0, 0, 0, 0, 0, 0, 0, 0, 0, 0, 0, 0, 0, 0, 0, 0, 0, 0, 0, 0, 0, 0, 0, 0, 0, 0], [0, 0, 0, 0, 0, 0, 0, 0, 0, 0, 0, 0, 0, 0, 0, 0, 0, 0, 0, 0, 0, 0, 0, 0, 0, 0, 0, 0, 0, 0]]];

q = [[[10, 120], [23, 112], [8, 109], [21, 114], [24, 114], [19, 119], [9, 107], [7, 108], [20, 121], [17, 112], [22, 125], [25, 105], [22, 118], [12, 112], [23, 110], [9, 111], [7, 123], [14, 125], [24, 112], [6, 124], [22, 107], [11, 121], [18, 119], [16, 109], [15, 117], [7, 122], [18, 124], [12, 121], [18, 123], [21, 121]], [[15, 112], [9, 109], [24, 121], [13, 125], [12, 114], [9, 118], [23, 116], [20, 118], [16, 107], [25, 108], [22, 118], [25, 114], [20, 119], [15, 125], [14, 123], [17, 114], [17, 125], [9, 118], [25, 124], [16, 113], [16, 121], [10, 125], [25, 115], [10, 119], [15, 116], [21, 108], [5, 120], [22, 108], [18, 122], [10, 107]], [[5, 119], [5, 113], [8, 105], [14, 119], [8, 125], [15, 124], [9, 123], [18, 113], [7, 115], [7, 114], [13, 123], [7, 122], [9, 120], [11, 114], [24, 125], [8, 122], [8, 107], [5, 116], [17, 118], [21, 114], [19, 110], [16, 116], [21, 121], [14, 111], [9, 114], [23, 112], [13, 110], [22, 117], [5, 121], [7, 119]], [[14, 112], [5, 118], [11, 105], [8, 114], [11, 116], [22, 117], [17, 116], [23, 115], [11, 121], [7, 112], [8, 106], [10, 121], [23, 109], [15, 107], [13, 107], [24, 119], [12, 113], [14, 125], [11, 118], [7, 109], [20, 108], [22, 125], [12, 109], [23, 108], [14, 112], [19, 113], [16, 112], [24, 119], [16, 110], [18, 116]], [[10, 106], [5, 116], [12, 110], [10, 115], [21, 117], [13, 107], [14, 106], [21, 113], [23, 111], [19, 116], [8, 113], [13, 114], [14, 111], [23, 125], [6, 118], [14, 116], [22, 119], [18, 124], [17, 116], [6, 120], [9, 113], [23, 106], [8, 120], [6, 108], [15, 118], [11, 118], [13, 119], [7, 110], [24, 105], [9, 112]], [[16, 109], [22, 108], [7, 120], [22, 125], [13, 116], [12, 106], [13, 109], [20, 122], [7, 107], [16, 105], [17, 117], [16, 106], [8, 115], [25, 120], [6, 116], [6, 108], [18, 107], [24, 117], [15, 107], [18, 110], [17, 121], [22, 111], [25, 108], [14, 114], [22, 115], [6, 117], [12, 115], [12, 106], [9, 111], [15, 111]], [[20, 111], [20, 116], [15, 118], [6, 114], [20, 110], [8, 118], [16, 116], [21, 122], [18, 125], [7, 122], [5, 112], [16, 117], [18, 114], [15, 114], [16, 108], [7, 118], [25, 119], [5, 121], [7, 117], [6, 107], [19, 108], [8, 120], [10, 122], [14, 106], [19, 114], [22, 119], [9, 124], [8, 106], [23, 109], [9, 108]], [[19, 107], [22, 115], [25, 109], [25, 124], [7, 113], [17, 121], [19, 124], [20, 125], [13, 105], [11, 107], [22, 110], [14, 123], [20, 117], [19, 115], [17, 105], [24, 116], [17, 108], [21, 119], [11, 121], [19, 119], [10, 105], [12, 105], [8, 106], [15, 107], [24, 121], [20, 122], [22, 105], [23, 111], [18, 117], [24, 115]], [[24, 112], [13, 119], [16, 109], [5, 116], [14, 121], [12, 118], [23, 120], [25, 124], [8, 116], [23, 120], [19, 108], [16, 122], [8, 122], [25, 124], [7, 121], [15, 110], [14, 110], [22, 106], [20, 109], [21, 123], [12, 124], [6, 114], [15, 112], [22, 122], [7, 116], [8, 116], [20, 114], [13, 112], [10, 124], [17, 121]], [[23, 118], [16, 121], [15, 120], [17, 114], [22, 120], [5, 108], [9, 114], [10, 125], [19, 123], [15, 113], [20, 116], [21, 112], [18, 122], [19, 105], [18, 107], [7, 111], [14, 122], [13, 113], [25, 124], [11, 112], [6, 111], [6, 107], [5, 119], [19, 105], [23, 121], [10, 109], [19, 110], [16, 125], [21, 122], [24, 114]]];
Q = [[38, 279], [39, 281], [29, 281], [36, 273], [33, 274], [36, 271], [32, 277], [43, 274], [36, 281], [37, 278]];
